(set-info :source |printed by MathSAT|)
(declare-fun |!{$(in_main#0)<a1.1>}| () (Array Int Int))
(declare-fun |!{$(in_main#0)<a1.1>}.next| () (Array Int Int))
(declare-fun |!{$(in_main#0)<a2.2>}| () (Array Int Int))
(declare-fun |!{$(in_main#0)<a2.2>}.next| () (Array Int Int))
(declare-fun |!{$(in_main#0)<a3.3>}| () (Array Int Int))
(declare-fun |!{$(in_main#0)<a3.3>}.next| () (Array Int Int))
(declare-fun |!{$(in_main#0)<a4.4>}| () (Array Int Int))
(declare-fun |!{$(in_main#0)<a4.4>}.next| () (Array Int Int))
(declare-fun |!{$(in_main#0)<a5.5>}| () (Array Int Int))
(declare-fun |!{$(in_main#0)<a5.5>}.next| () (Array Int Int))
(declare-fun |!{$(in_main#0)<a6.6>}| () (Array Int Int))
(declare-fun |!{$(in_main#0)<a6.6>}.next| () (Array Int Int))
(declare-fun |!{$(in_main#0)<a7.7>}| () (Array Int Int))
(declare-fun |!{$(in_main#0)<a7.7>}.next| () (Array Int Int))
(declare-fun |!{$(in_main#0)<N>}| () Int)
(declare-fun |!{$(in_main#0)<N>}.next| () Int)
(declare-fun |!{$(in_main#0)<a>}| () Int)
(declare-fun |!{$(in_main#0)<a>}.next| () Int)
(declare-fun |!{$(in_main#0)<i>}| () Int)
(declare-fun |!{$(in_main#0)<i>}.next| () Int)
(declare-fun |!{$(in_main#0)<x>}| () Int)
(declare-fun |!{$(in_main#0)<x>}.next| () Int)
(declare-fun |!{$(in_main#0)<$(in___VERIFIER_nondet_int#0)<h#<__VERIFIER_nondet_int.return>>>}| () Int)
(declare-fun |!{$(in_main#0)<$(in___VERIFIER_nondet_int#1)<h#<__VERIFIER_nondet_int.return>>>}| () Int)
(declare-fun !pc () Int)
(declare-fun !pc.next () Int)
(declare-fun |%{$(in_main#0)<i>}#1| () Int)
(declare-fun |%{$(in_main#0)<x>}#1| () Int)
(declare-fun |%{$(in_main#0)<a1.1>}#1| () (Array Int Int))
(declare-fun |%{$(in_main#0)<a2.2>}#1| () (Array Int Int))
(declare-fun |%{$(in_main#0)<a3.3>}#1| () (Array Int Int))
(declare-fun |%{$(in_main#0)<a4.4>}#1| () (Array Int Int))
(declare-fun |%{$(in_main#0)<a5.5>}#1| () (Array Int Int))
(declare-fun |%{$(in_main#0)<a6.6>}#1| () (Array Int Int))
(declare-fun |%{$(in_main#0)<a7.7>}#1| () (Array Int Int))
(define-fun .def_49 () Int (! !pc :next !pc.next))
(define-fun .def_52 () Bool (! (= .def_49 2) :init true))
(define-fun .def_329 () Bool (= .def_49 38))
(define-fun .def_302 () Bool (= !pc.next 59))
(define-fun .def_332 () Bool (and .def_302 .def_329))
(define-fun .def_24 () Int (! |!{$(in_main#0)<a>}| :next |!{$(in_main#0)<a>}.next|))
(define-fun .def_22 () Int (! |!{$(in_main#0)<N>}| :next |!{$(in_main#0)<N>}.next|))
(define-fun .def_309 () Bool (<= .def_22 .def_24))
(define-fun .def_210 () Bool (= |!{$(in_main#0)<i>}.next| 0))
(define-fun .def_10 () (Array Int Int) (! |!{$(in_main#0)<a2.2>}| :next |!{$(in_main#0)<a2.2>}.next|))
(define-fun .def_108 () Bool (= .def_10 |!{$(in_main#0)<a2.2>}.next|))
(define-fun .def_8 () (Array Int Int) (! |!{$(in_main#0)<a1.1>}| :next |!{$(in_main#0)<a1.1>}.next|))
(define-fun .def_106 () Bool (= .def_8 |!{$(in_main#0)<a1.1>}.next|))
(define-fun .def_129 () Bool (and .def_106 .def_108))
(define-fun .def_12 () (Array Int Int) (! |!{$(in_main#0)<a3.3>}| :next |!{$(in_main#0)<a3.3>}.next|))
(define-fun .def_110 () Bool (= .def_12 |!{$(in_main#0)<a3.3>}.next|))
(define-fun .def_130 () Bool (and .def_110 .def_129))
(define-fun .def_14 () (Array Int Int) (! |!{$(in_main#0)<a4.4>}| :next |!{$(in_main#0)<a4.4>}.next|))
(define-fun .def_112 () Bool (= .def_14 |!{$(in_main#0)<a4.4>}.next|))
(define-fun .def_131 () Bool (and .def_112 .def_130))
(define-fun .def_16 () (Array Int Int) (! |!{$(in_main#0)<a5.5>}| :next |!{$(in_main#0)<a5.5>}.next|))
(define-fun .def_114 () Bool (= .def_16 |!{$(in_main#0)<a5.5>}.next|))
(define-fun .def_132 () Bool (and .def_114 .def_131))
(define-fun .def_18 () (Array Int Int) (! |!{$(in_main#0)<a6.6>}| :next |!{$(in_main#0)<a6.6>}.next|))
(define-fun .def_116 () Bool (= .def_18 |!{$(in_main#0)<a6.6>}.next|))
(define-fun .def_133 () Bool (and .def_116 .def_132))
(define-fun .def_20 () (Array Int Int) (! |!{$(in_main#0)<a7.7>}| :next |!{$(in_main#0)<a7.7>}.next|))
(define-fun .def_118 () Bool (= .def_20 |!{$(in_main#0)<a7.7>}.next|))
(define-fun .def_134 () Bool (and .def_118 .def_133))
(define-fun .def_120 () Bool (= .def_22 |!{$(in_main#0)<N>}.next|))
(define-fun .def_135 () Bool (and .def_120 .def_134))
(define-fun .def_122 () Bool (= .def_24 |!{$(in_main#0)<a>}.next|))
(define-fun .def_136 () Bool (and .def_122 .def_135))
(define-fun .def_211 () Bool (and .def_136 .def_210))
(define-fun .def_28 () Int (! |!{$(in_main#0)<x>}| :next |!{$(in_main#0)<x>}.next|))
(define-fun .def_126 () Bool (= .def_28 |!{$(in_main#0)<x>}.next|))
(define-fun .def_212 () Bool (and .def_126 .def_211))
(define-fun .def_328 () Bool (and .def_212 .def_309))
(define-fun .def_333 () Bool (and .def_328 .def_332))
(define-fun .def_92 () Bool (= !pc.next 38))
(define-fun .def_330 () Bool (and .def_92 .def_329))
(define-fun .def_321 () Int (* (- 1) |!{$(in_main#0)<a>}.next|))
(define-fun .def_322 () Int (+ .def_24 .def_321))
(define-fun .def_323 () Bool (= .def_322 (- 1)))
(define-fun .def_311 () (Array Int Int) (store .def_8 .def_24 |!{$(in_main#0)<$(in___VERIFIER_nondet_int#1)<h#<__VERIFIER_nondet_int.return>>>}|))
(define-fun .def_313 () Bool (= |!{$(in_main#0)<a1.1>}.next| .def_311))
(define-fun .def_314 () Bool (and .def_108 .def_313))
(define-fun .def_315 () Bool (and .def_110 .def_314))
(define-fun .def_316 () Bool (and .def_112 .def_315))
(define-fun .def_317 () Bool (and .def_114 .def_316))
(define-fun .def_318 () Bool (and .def_116 .def_317))
(define-fun .def_319 () Bool (and .def_118 .def_318))
(define-fun .def_320 () Bool (and .def_120 .def_319))
(define-fun .def_324 () Bool (and .def_320 .def_323))
(define-fun .def_26 () Int (! |!{$(in_main#0)<i>}| :next |!{$(in_main#0)<i>}.next|))
(define-fun .def_124 () Bool (= .def_26 |!{$(in_main#0)<i>}.next|))
(define-fun .def_325 () Bool (and .def_124 .def_324))
(define-fun .def_326 () Bool (and .def_126 .def_325))
(define-fun .def_310 () Bool (not .def_309))
(define-fun .def_327 () Bool (and .def_310 .def_326))
(define-fun .def_331 () Bool (and .def_327 .def_330))
(define-fun .def_334 () Bool (or .def_331 .def_333))
(define-fun .def_301 () Bool (= .def_49 59))
(define-fun .def_279 () Bool (= !pc.next 73))
(define-fun .def_305 () Bool (and .def_279 .def_301))
(define-fun .def_173 () Bool (<= .def_22 .def_26))
(define-fun .def_213 () Bool (and .def_173 .def_212))
(define-fun .def_306 () Bool (and .def_213 .def_305))
(define-fun .def_303 () Bool (and .def_301 .def_302))
(define-fun .def_286 () Int (select .def_8 .def_26))
(define-fun .def_287 () (Array Int Int) (store .def_10 .def_26 .def_286))
(define-fun .def_288 () Bool (= |!{$(in_main#0)<a2.2>}.next| .def_287))
(define-fun .def_289 () Bool (and .def_106 .def_288))
(define-fun .def_290 () Bool (and .def_110 .def_289))
(define-fun .def_291 () Bool (and .def_112 .def_290))
(define-fun .def_292 () Bool (and .def_114 .def_291))
(define-fun .def_293 () Bool (and .def_116 .def_292))
(define-fun .def_294 () Bool (and .def_118 .def_293))
(define-fun .def_295 () Bool (and .def_120 .def_294))
(define-fun .def_296 () Bool (and .def_122 .def_295))
(define-fun .def_182 () Int (* (- 1) |!{$(in_main#0)<i>}.next|))
(define-fun .def_183 () Int (+ .def_26 .def_182))
(define-fun .def_184 () Bool (= .def_183 (- 1)))
(define-fun .def_297 () Bool (and .def_184 .def_296))
(define-fun .def_298 () Bool (and .def_126 .def_297))
(define-fun .def_174 () Bool (not .def_173))
(define-fun .def_299 () Bool (and .def_174 .def_298))
(define-fun .def_304 () Bool (and .def_299 .def_303))
(define-fun .def_307 () Bool (or .def_304 .def_306))
(define-fun .def_278 () Bool (= .def_49 73))
(define-fun .def_257 () Bool (= !pc.next 87))
(define-fun .def_282 () Bool (and .def_257 .def_278))
(define-fun .def_283 () Bool (and .def_213 .def_282))
(define-fun .def_280 () Bool (and .def_278 .def_279))
(define-fun .def_264 () Int (select .def_10 .def_26))
(define-fun .def_265 () (Array Int Int) (store .def_12 .def_26 .def_264))
(define-fun .def_266 () Bool (= |!{$(in_main#0)<a3.3>}.next| .def_265))
(define-fun .def_267 () Bool (and .def_129 .def_266))
(define-fun .def_268 () Bool (and .def_112 .def_267))
(define-fun .def_269 () Bool (and .def_114 .def_268))
(define-fun .def_270 () Bool (and .def_116 .def_269))
(define-fun .def_271 () Bool (and .def_118 .def_270))
(define-fun .def_272 () Bool (and .def_120 .def_271))
(define-fun .def_273 () Bool (and .def_122 .def_272))
(define-fun .def_274 () Bool (and .def_184 .def_273))
(define-fun .def_275 () Bool (and .def_126 .def_274))
(define-fun .def_276 () Bool (and .def_174 .def_275))
(define-fun .def_281 () Bool (and .def_276 .def_280))
(define-fun .def_284 () Bool (or .def_281 .def_283))
(define-fun .def_256 () Bool (= .def_49 87))
(define-fun .def_236 () Bool (= !pc.next 101))
(define-fun .def_260 () Bool (and .def_236 .def_256))
(define-fun .def_261 () Bool (and .def_213 .def_260))
(define-fun .def_258 () Bool (and .def_256 .def_257))
(define-fun .def_243 () Int (select .def_12 .def_26))
(define-fun .def_244 () (Array Int Int) (store .def_14 .def_26 .def_243))
(define-fun .def_245 () Bool (= |!{$(in_main#0)<a4.4>}.next| .def_244))
(define-fun .def_246 () Bool (and .def_130 .def_245))
(define-fun .def_247 () Bool (and .def_114 .def_246))
(define-fun .def_248 () Bool (and .def_116 .def_247))
(define-fun .def_249 () Bool (and .def_118 .def_248))
(define-fun .def_250 () Bool (and .def_120 .def_249))
(define-fun .def_251 () Bool (and .def_122 .def_250))
(define-fun .def_252 () Bool (and .def_184 .def_251))
(define-fun .def_253 () Bool (and .def_126 .def_252))
(define-fun .def_254 () Bool (and .def_174 .def_253))
(define-fun .def_259 () Bool (and .def_254 .def_258))
(define-fun .def_262 () Bool (or .def_259 .def_261))
(define-fun .def_235 () Bool (= .def_49 101))
(define-fun .def_216 () Bool (= !pc.next 115))
(define-fun .def_239 () Bool (and .def_216 .def_235))
(define-fun .def_240 () Bool (and .def_213 .def_239))
(define-fun .def_237 () Bool (and .def_235 .def_236))
(define-fun .def_223 () Int (select .def_14 .def_26))
(define-fun .def_224 () (Array Int Int) (store .def_16 .def_26 .def_223))
(define-fun .def_225 () Bool (= |!{$(in_main#0)<a5.5>}.next| .def_224))
(define-fun .def_226 () Bool (and .def_131 .def_225))
(define-fun .def_227 () Bool (and .def_116 .def_226))
(define-fun .def_228 () Bool (and .def_118 .def_227))
(define-fun .def_229 () Bool (and .def_120 .def_228))
(define-fun .def_230 () Bool (and .def_122 .def_229))
(define-fun .def_231 () Bool (and .def_184 .def_230))
(define-fun .def_232 () Bool (and .def_126 .def_231))
(define-fun .def_233 () Bool (and .def_174 .def_232))
(define-fun .def_238 () Bool (and .def_233 .def_237))
(define-fun .def_241 () Bool (or .def_238 .def_240))
(define-fun .def_215 () Bool (= .def_49 115))
(define-fun .def_193 () Bool (= !pc.next 129))
(define-fun .def_219 () Bool (and .def_193 .def_215))
(define-fun .def_220 () Bool (and .def_213 .def_219))
(define-fun .def_217 () Bool (and .def_215 .def_216))
(define-fun .def_200 () Int (select .def_16 .def_26))
(define-fun .def_201 () (Array Int Int) (store .def_18 .def_26 .def_200))
(define-fun .def_202 () Bool (= |!{$(in_main#0)<a6.6>}.next| .def_201))
(define-fun .def_203 () Bool (and .def_132 .def_202))
(define-fun .def_204 () Bool (and .def_118 .def_203))
(define-fun .def_205 () Bool (and .def_120 .def_204))
(define-fun .def_206 () Bool (and .def_122 .def_205))
(define-fun .def_207 () Bool (and .def_184 .def_206))
(define-fun .def_208 () Bool (and .def_126 .def_207))
(define-fun .def_209 () Bool (and .def_174 .def_208))
(define-fun .def_218 () Bool (and .def_209 .def_217))
(define-fun .def_221 () Bool (or .def_218 .def_220))
(define-fun .def_192 () Bool (= .def_49 129))
(define-fun .def_162 () Bool (= !pc.next 143))
(define-fun .def_196 () Bool (and .def_162 .def_192))
(define-fun .def_188 () Bool (= |!{$(in_main#0)<x>}.next| 0))
(define-fun .def_137 () Bool (and .def_124 .def_136))
(define-fun .def_189 () Bool (and .def_137 .def_188))
(define-fun .def_190 () Bool (and .def_173 .def_189))
(define-fun .def_197 () Bool (and .def_190 .def_196))
(define-fun .def_194 () Bool (and .def_192 .def_193))
(define-fun .def_175 () Int (select .def_18 .def_26))
(define-fun .def_176 () (Array Int Int) (store .def_20 .def_26 .def_175))
(define-fun .def_178 () Bool (= |!{$(in_main#0)<a7.7>}.next| .def_176))
(define-fun .def_179 () Bool (and .def_133 .def_178))
(define-fun .def_180 () Bool (and .def_120 .def_179))
(define-fun .def_181 () Bool (and .def_122 .def_180))
(define-fun .def_185 () Bool (and .def_181 .def_184))
(define-fun .def_186 () Bool (and .def_126 .def_185))
(define-fun .def_187 () Bool (and .def_174 .def_186))
(define-fun .def_195 () Bool (and .def_187 .def_194))
(define-fun .def_198 () Bool (or .def_195 .def_197))
(define-fun .def_166 () Bool (= !pc.next 0))
(define-fun .def_157 () Bool (= .def_49 143))
(define-fun .def_167 () Bool (and .def_157 .def_166))
(define-fun .def_95 () Bool (<= .def_22 .def_28))
(define-fun .def_145 () Bool (and .def_95 .def_106))
(define-fun .def_146 () Bool (and .def_108 .def_145))
(define-fun .def_147 () Bool (and .def_110 .def_146))
(define-fun .def_148 () Bool (and .def_112 .def_147))
(define-fun .def_149 () Bool (and .def_114 .def_148))
(define-fun .def_150 () Bool (and .def_116 .def_149))
(define-fun .def_151 () Bool (and .def_118 .def_150))
(define-fun .def_152 () Bool (and .def_120 .def_151))
(define-fun .def_153 () Bool (and .def_122 .def_152))
(define-fun .def_154 () Bool (and .def_124 .def_153))
(define-fun .def_155 () Bool (and .def_126 .def_154))
(define-fun .def_168 () Bool (and .def_155 .def_167))
(define-fun .def_163 () Bool (and .def_157 .def_162))
(define-fun .def_139 () Int (* (- 1) |!{$(in_main#0)<x>}.next|))
(define-fun .def_140 () Int (+ .def_28 .def_139))
(define-fun .def_141 () Bool (= .def_140 (- 1)))
(define-fun .def_142 () Bool (and .def_137 .def_141))
(define-fun .def_98 () Int (select .def_20 .def_28))
(define-fun .def_97 () Int (select .def_8 .def_28))
(define-fun .def_99 () Bool (= .def_97 .def_98))
(define-fun .def_100 () Int (ite .def_99 1 0))
(define-fun .def_101 () Bool (= .def_100 0))
(define-fun .def_102 () Bool (not .def_101))
(define-fun .def_143 () Bool (and .def_102 .def_142))
(define-fun .def_96 () Bool (not .def_95))
(define-fun .def_144 () Bool (and .def_96 .def_143))
(define-fun .def_164 () Bool (and .def_144 .def_163))
(define-fun .def_159 () Bool (= !pc.next 163))
(define-fun .def_160 () Bool (and .def_157 .def_159))
(define-fun .def_107 () Bool (and .def_101 .def_106))
(define-fun .def_109 () Bool (and .def_107 .def_108))
(define-fun .def_111 () Bool (and .def_109 .def_110))
(define-fun .def_113 () Bool (and .def_111 .def_112))
(define-fun .def_115 () Bool (and .def_113 .def_114))
(define-fun .def_117 () Bool (and .def_115 .def_116))
(define-fun .def_119 () Bool (and .def_117 .def_118))
(define-fun .def_121 () Bool (and .def_119 .def_120))
(define-fun .def_123 () Bool (and .def_121 .def_122))
(define-fun .def_125 () Bool (and .def_123 .def_124))
(define-fun .def_127 () Bool (and .def_125 .def_126))
(define-fun .def_128 () Bool (and .def_96 .def_127))
(define-fun .def_161 () Bool (and .def_128 .def_160))
(define-fun .def_165 () Bool (or .def_161 .def_164))
(define-fun .def_169 () Bool (or .def_165 .def_168))
(define-fun .def_93 () Bool (and .def_52 .def_92))
(define-fun .def_89 () Bool (= |!{$(in_main#0)<x>}.next| |%{$(in_main#0)<x>}#1|))
(define-fun .def_87 () Bool (= |!{$(in_main#0)<i>}.next| |%{$(in_main#0)<i>}#1|))
(define-fun .def_85 () Bool (= |!{$(in_main#0)<a>}.next| 0))
(define-fun .def_83 () Bool (= |!{$(in_main#0)<N>}.next| |!{$(in_main#0)<$(in___VERIFIER_nondet_int#0)<h#<__VERIFIER_nondet_int.return>>>}|))
(define-fun .def_81 () Bool (= |!{$(in_main#0)<a7.7>}.next| |%{$(in_main#0)<a7.7>}#1|))
(define-fun .def_79 () Bool (= |!{$(in_main#0)<a6.6>}.next| |%{$(in_main#0)<a6.6>}#1|))
(define-fun .def_77 () Bool (= |!{$(in_main#0)<a5.5>}.next| |%{$(in_main#0)<a5.5>}#1|))
(define-fun .def_75 () Bool (= |!{$(in_main#0)<a4.4>}.next| |%{$(in_main#0)<a4.4>}#1|))
(define-fun .def_73 () Bool (= |!{$(in_main#0)<a3.3>}.next| |%{$(in_main#0)<a3.3>}#1|))
(define-fun .def_71 () Bool (= |!{$(in_main#0)<a2.2>}.next| |%{$(in_main#0)<a2.2>}#1|))
(define-fun .def_70 () Bool (= |!{$(in_main#0)<a1.1>}.next| |%{$(in_main#0)<a1.1>}#1|))
(define-fun .def_72 () Bool (and .def_70 .def_71))
(define-fun .def_74 () Bool (and .def_72 .def_73))
(define-fun .def_76 () Bool (and .def_74 .def_75))
(define-fun .def_78 () Bool (and .def_76 .def_77))
(define-fun .def_80 () Bool (and .def_78 .def_79))
(define-fun .def_82 () Bool (and .def_80 .def_81))
(define-fun .def_84 () Bool (and .def_82 .def_83))
(define-fun .def_86 () Bool (and .def_84 .def_85))
(define-fun .def_88 () Bool (and .def_86 .def_87))
(define-fun .def_90 () Bool (and .def_88 .def_89))
(define-fun .def_94 () Bool (and .def_90 .def_93))
(define-fun .def_170 () Bool (or .def_94 .def_169))
(define-fun .def_199 () Bool (or .def_170 .def_198))
(define-fun .def_222 () Bool (or .def_199 .def_221))
(define-fun .def_242 () Bool (or .def_222 .def_241))
(define-fun .def_263 () Bool (or .def_242 .def_262))
(define-fun .def_285 () Bool (or .def_263 .def_284))
(define-fun .def_308 () Bool (or .def_285 .def_307))
(define-fun .def_335 () Bool (! (or .def_308 .def_334) :trans true))
(define-fun .def_171 () Bool (= .def_49 163))
(define-fun .def_336 () Bool (! (not .def_171) :invar-property 0 :invar-property-name ||))
(assert true)
